************************************************************************
file with basedata            : mm18_.bas
initial value random generator: 1930592064
************************************************************************
projects                      :  1
jobs (incl. supersource/sink ):  12
horizon                       :  75
RESOURCES
  - renewable                 :  2   R
  - nonrenewable              :  2   N
  - doubly constrained        :  0   D
************************************************************************
PROJECT INFORMATION:
pronr.  #jobs rel.date duedate tardcost  MPM-Time
    1     10      0       16        5       16
************************************************************************
PRECEDENCE RELATIONS:
jobnr.    #modes  #successors   successors
   0        1          3           1   2   3
   1        3          1           9
   2        3          3           4   5   6
   3        3          2           7   9
   4        3          2           7   9
   5        3          1           7
   6        3          2           8  10
   7        3          1          10
   8        3          1          11
   9        3          1          11
  10        3          1          11
  11        1          0        
************************************************************************
REQUESTS/DURATIONS:
jobnr. mode duration  R 1  R 2  R 3  R 4  E(W 1)  E(W 2)
------------------------------------------------------------------------
  0      1     0       0    0    0    0     0       0
  1      1     2       3    0    0    2     6       4
  2      1     3       0    8    8    0    24      24
  3      1     3       0    4    6    0    12      18
  4      1     2       4    0    0    6     8      12
  5      1     4       9    0    5    0    36      20
  6      1     2       0    2    7    0     4      14
  7      1     5       4    0    0    9    20      45
  8      1     1       0    9    5    0     9       5
  9      1     1       6    0    0    8     6       8
 10      1     4       0    6    8    0    24      32
 11      1     0       0    0    0    0     0       0
************************************************************************
RESOURCEAVAILABILITIES:
  R 1  R 2
   26   59
************************************************************************
RESOURCE LIMITS:
jobnr.  l(R 1)  u(R 1)  l(R 2)  u(R 2)
------------------------------------------------------------------------
  0        0       0       0       0
  1        2       3       1       2
  2        4       8       4       8
  3        2       4       3       6
  4        2       4       3       6
  5        5       9       3       5
  6        1       2       4       7
  7        2       4       5       9
  8        5       9       3       5
  9        3       6       4       8
 10        3       6       4       8
 11        0       0       0       0
************************************************************************
SCENARIOS:
------------------------------------------------------------------------
RESOURCE k = 1
s = 1: (0, 7, 27, 7, 7, 31, 6, 28, 11, 7, 28, 0)
s = 2: (0, 8, 22, 15, 9, 32, 5, 14, 6, 6, 28, 0)
s = 3: (0, 8, 32, 15, 9, 38, 5, 23, 7, 6, 24, 0)
s = 4: (0, 5, 17, 18, 9, 27, 5, 13, 9, 6, 22, 0)
s = 5: (0, 5, 22, 11, 9, 34, 5, 21, 15, 5, 28, 0)
s = 6: (0, 5, 21, 14, 8, 60, 4, 21, 7, 5, 22, 0)
s = 7: (0, 9, 29, 17, 6, 47, 5, 36, 13, 7, 36, 0)
s = 8: (0, 6, 19, 13, 10, 44, 4, 15, 14, 8, 31, 0)
s = 9: (0, 8, 37, 14, 10, 38, 5, 17, 7, 8, 22, 0)
s = 10: (0, 10, 29, 9, 10, 47, 4, 18, 7, 6, 20, 0)
s = 11: (0, 10, 41, 8, 11, 26, 8, 15, 7, 6, 34, 0)
s = 12: (0, 5, 32, 17, 10, 23, 5, 14, 6, 6, 19, 0)
s = 13: (0, 8, 27, 12, 6, 23, 4, 16, 10, 8, 31, 0)
s = 14: (0, 5, 19, 13, 10, 21, 5, 19, 13, 10, 19, 0)
s = 15: (0, 7, 22, 11, 11, 31, 3, 15, 11, 5, 24, 0)
s = 16: (0, 10, 27, 11, 10, 29, 5, 26, 8, 9, 29, 0)
s = 17: (0, 6, 16, 10, 12, 30, 6, 20, 10, 6, 36, 0)
s = 18: (0, 5, 33, 10, 8, 31, 4, 18, 10, 6, 13, 0)
s = 19: (0, 5, 18, 8, 12, 35, 4, 15, 13, 6, 30, 0)
s = 20: (0, 6, 33, 7, 7, 27, 4, 22, 16, 7, 20, 0)
s = 21: (0, 6, 18, 13, 7, 51, 6, 20, 9, 8, 24, 0)
s = 22: (0, 7, 22, 7, 8, 36, 5, 23, 9, 7, 28, 0)
s = 23: (0, 5, 22, 15, 8, 45, 6, 17, 5, 8, 14, 0)
s = 24: (0, 4, 25, 17, 9, 25, 5, 22, 11, 4, 33, 0)
s = 25: (0, 6, 20, 14, 6, 32, 5, 14, 10, 7, 32, 0)
s = 26: (0, 4, 32, 14, 12, 26, 3, 29, 7, 7, 24, 0)
s = 27: (0, 5, 19, 16, 12, 31, 6, 28, 9, 5, 15, 0)
s = 28: (0, 6, 20, 13, 10, 30, 4, 30, 9, 5, 23, 0)
s = 29: (0, 9, 18, 13, 11, 54, 4, 22, 13, 6, 27, 0)
s = 30: (0, 6, 16, 8, 8, 32, 5, 21, 10, 5, 31, 0)
s = 31: (0, 6, 16, 14, 14, 63, 3, 19, 13, 9, 19, 0)
s = 32: (0, 6, 35, 16, 7, 41, 6, 19, 6, 8, 36, 0)
s = 33: (0, 7, 23, 14, 7, 34, 5, 32, 11, 8, 31, 0)
s = 34: (0, 7, 32, 10, 5, 41, 8, 22, 9, 5, 18, 0)
s = 35: (0, 10, 22, 16, 10, 44, 4, 22, 9, 5, 30, 0)
s = 36: (0, 4, 16, 17, 7, 52, 3, 19, 12, 7, 17, 0)
s = 37: (0, 7, 30, 19, 9, 32, 5, 26, 6, 10, 19, 0)
s = 38: (0, 7, 37, 15, 8, 42, 7, 18, 6, 5, 16, 0)
s = 39: (0, 5, 22, 9, 8, 24, 5, 17, 11, 5, 18, 0)
s = 40: (0, 8, 25, 9, 7, 32, 6, 25, 12, 4, 26, 0)
s = 41: (0, 7, 19, 9, 11, 45, 3, 20, 10, 5, 28, 0)
s = 42: (0, 10, 20, 13, 8, 23, 7, 21, 10, 7, 32, 0)
s = 43: (0, 5, 39, 16, 13, 43, 4, 18, 8, 6, 30, 0)
s = 44: (0, 6, 25, 18, 10, 37, 5, 14, 9, 5, 24, 0)
s = 45: (0, 5, 31, 10, 11, 35, 6, 27, 9, 6, 19, 0)
s = 46: (0, 6, 31, 12, 9, 36, 3, 28, 6, 6, 15, 0)
s = 47: (0, 5, 28, 13, 6, 38, 5, 26, 9, 5, 24, 0)
s = 48: (0, 7, 33, 8, 7, 48, 7, 17, 9, 7, 28, 0)
s = 49: (0, 9, 24, 10, 7, 28, 3, 28, 6, 6, 13, 0)
s = 50: (0, 5, 17, 11, 6, 27, 5, 17, 9, 8, 21, 0)
s = 51: (0, 8, 34, 10, 11, 19, 4, 20, 8, 6, 16, 0)
s = 52: (0, 7, 22, 15, 6, 52, 4, 19, 12, 6, 19, 0)
s = 53: (0, 8, 30, 13, 13, 48, 4, 13, 9, 6, 28, 0)
s = 54: (0, 7, 18, 9, 5, 54, 5, 19, 7, 5, 31, 0)
s = 55: (0, 8, 16, 12, 14, 27, 6, 30, 10, 4, 15, 0)
s = 56: (0, 5, 22, 10, 6, 40, 4, 29, 10, 5, 17, 0)
s = 57: (0, 9, 28, 10, 9, 31, 7, 19, 11, 7, 24, 0)
s = 58: (0, 6, 18, 14, 6, 37, 4, 22, 10, 7, 16, 0)
s = 59: (0, 9, 26, 13, 6, 46, 4, 16, 14, 8, 27, 0)
s = 60: (0, 4, 33, 14, 6, 28, 4, 14, 7, 6, 24, 0)
s = 61: (0, 5, 22, 9, 7, 23, 4, 32, 15, 8, 37, 0)
s = 62: (0, 5, 23, 11, 6, 39, 3, 17, 12, 6, 27, 0)
s = 63: (0, 7, 20, 7, 7, 41, 4, 17, 12, 4, 33, 0)
s = 64: (0, 6, 21, 10, 7, 30, 4, 17, 5, 4, 27, 0)
s = 65: (0, 4, 38, 9, 7, 42, 4, 19, 11, 6, 21, 0)
s = 66: (0, 8, 21, 9, 9, 29, 4, 36, 6, 4, 27, 0)
s = 67: (0, 6, 16, 9, 5, 62, 6, 18, 6, 6, 14, 0)
s = 68: (0, 6, 25, 16, 6, 42, 4, 31, 12, 6, 21, 0)
s = 69: (0, 5, 19, 12, 9, 25, 5, 20, 13, 7, 24, 0)
s = 70: (0, 6, 19, 13, 5, 43, 4, 16, 7, 6, 17, 0)
s = 71: (0, 7, 18, 11, 8, 54, 6, 15, 7, 9, 24, 0)
s = 72: (0, 7, 25, 10, 13, 30, 6, 22, 8, 6, 16, 0)
s = 73: (0, 7, 38, 20, 10, 39, 6, 26, 7, 7, 14, 0)
s = 74: (0, 6, 23, 9, 5, 25, 6, 29, 6, 5, 23, 0)
s = 75: (0, 10, 34, 9, 7, 30, 4, 16, 12, 8, 26, 0)
s = 76: (0, 7, 18, 15, 7, 28, 3, 19, 15, 5, 17, 0)
s = 77: (0, 5, 19, 8, 10, 52, 5, 15, 10, 7, 32, 0)
s = 78: (0, 10, 22, 11, 10, 31, 4, 27, 6, 10, 30, 0)
s = 79: (0, 8, 19, 10, 9, 43, 4, 16, 8, 4, 28, 0)
s = 80: (0, 9, 21, 14, 7, 35, 3, 16, 8, 6, 28, 0)
s = 81: (0, 12, 24, 17, 13, 41, 6, 13, 11, 5, 19, 0)
s = 82: (0, 9, 17, 13, 9, 24, 3, 19, 6, 5, 16, 0)
s = 83: (0, 4, 26, 12, 10, 31, 5, 31, 8, 8, 20, 0)
s = 84: (0, 5, 28, 11, 10, 37, 3, 12, 6, 7, 14, 0)
s = 85: (0, 9, 30, 9, 12, 34, 5, 25, 6, 10, 29, 0)
s = 86: (0, 4, 25, 17, 14, 47, 3, 15, 9, 5, 17, 0)
s = 87: (0, 7, 22, 18, 8, 50, 6, 19, 11, 6, 21, 0)
s = 88: (0, 6, 28, 12, 6, 50, 5, 19, 8, 8, 20, 0)
s = 89: (0, 5, 34, 10, 10, 20, 4, 18, 12, 10, 18, 0)
s = 90: (0, 7, 26, 14, 10, 63, 3, 25, 9, 7, 36, 0)
s = 91: (0, 6, 31, 9, 12, 23, 4, 17, 11, 5, 19, 0)
s = 92: (0, 8, 40, 10, 9, 30, 3, 15, 9, 7, 36, 0)
s = 93: (0, 8, 22, 10, 11, 25, 4, 16, 7, 5, 23, 0)
s = 94: (0, 8, 25, 13, 10, 42, 4, 18, 7, 7, 23, 0)
s = 95: (0, 5, 31, 12, 7, 24, 5, 13, 7, 8, 14, 0)
s = 96: (0, 8, 20, 18, 6, 39, 6, 11, 11, 10, 17, 0)
s = 97: (0, 5, 28, 14, 11, 29, 6, 31, 12, 6, 17, 0)
s = 98: (0, 7, 28, 12, 7, 38, 4, 24, 7, 6, 27, 0)
s = 99: (0, 7, 16, 14, 9, 28, 5, 19, 9, 8, 39, 0)
s = 100: (0, 4, 15, 10, 7, 23, 4, 16, 10, 5, 24, 0)
s = 101: (0, 6, 39, 12, 9, 23, 3, 18, 9, 4, 20, 0)
s = 102: (0, 7, 38, 15, 8, 45, 5, 21, 10, 9, 24, 0)
s = 103: (0, 7, 31, 13, 5, 36, 3, 21, 12, 5, 21, 0)
s = 104: (0, 4, 42, 10, 7, 40, 3, 16, 7, 5, 14, 0)
s = 105: (0, 8, 31, 12, 8, 22, 3, 15, 9, 4, 28, 0)
s = 106: (0, 8, 15, 12, 11, 26, 3, 14, 11, 6, 14, 0)
s = 107: (0, 6, 18, 13, 6, 26, 7, 20, 10, 10, 21, 0)
s = 108: (0, 7, 27, 11, 9, 34, 4, 20, 11, 6, 27, 0)
s = 109: (0, 5, 27, 14, 13, 29, 3, 26, 9, 7, 29, 0)
s = 110: (0, 7, 16, 10, 13, 42, 4, 18, 13, 6, 27, 0)
s = 111: (0, 5, 15, 13, 7, 49, 3, 22, 13, 4, 16, 0)
s = 112: (0, 7, 18, 13, 6, 23, 3, 20, 12, 4, 37, 0)
s = 113: (0, 4, 17, 11, 10, 36, 4, 13, 14, 8, 36, 0)
s = 114: (0, 6, 23, 7, 7, 28, 4, 16, 9, 6, 23, 0)
s = 115: (0, 6, 18, 20, 6, 30, 4, 14, 14, 6, 30, 0)
s = 116: (0, 5, 29, 11, 15, 48, 3, 11, 9, 5, 15, 0)
s = 117: (0, 5, 23, 16, 9, 30, 5, 18, 9, 5, 17, 0)
s = 118: (0, 8, 14, 9, 11, 29, 5, 17, 9, 6, 20, 0)
s = 119: (0, 7, 35, 12, 7, 31, 5, 17, 6, 7, 16, 0)
s = 120: (0, 6, 23, 10, 6, 25, 4, 23, 11, 9, 28, 0)
s = 121: (0, 9, 22, 20, 12, 33, 5, 30, 7, 6, 20, 0)
s = 122: (0, 10, 19, 11, 6, 37, 5, 12, 11, 6, 17, 0)
s = 123: (0, 5, 29, 13, 13, 34, 4, 17, 7, 7, 27, 0)
s = 124: (0, 10, 42, 9, 8, 20, 4, 25, 17, 7, 14, 0)
s = 125: (0, 5, 32, 10, 10, 47, 5, 19, 9, 8, 21, 0)
s = 126: (0, 4, 32, 10, 8, 29, 5, 18, 11, 8, 22, 0)
s = 127: (0, 4, 20, 12, 13, 29, 6, 22, 8, 9, 36, 0)
s = 128: (0, 6, 26, 10, 7, 34, 5, 17, 14, 5, 19, 0)
s = 129: (0, 7, 27, 22, 11, 53, 4, 35, 7, 5, 28, 0)
s = 130: (0, 5, 24, 12, 6, 34, 4, 13, 8, 9, 20, 0)
s = 131: (0, 7, 25, 16, 13, 44, 6, 23, 9, 7, 20, 0)
s = 132: (0, 6, 22, 13, 6, 51, 5, 23, 8, 6, 32, 0)
s = 133: (0, 7, 29, 13, 9, 27, 4, 19, 9, 9, 17, 0)
s = 134: (0, 9, 17, 9, 10, 28, 4, 17, 6, 8, 30, 0)
s = 135: (0, 5, 18, 10, 7, 32, 7, 18, 16, 8, 36, 0)
s = 136: (0, 7, 16, 9, 8, 34, 5, 31, 7, 4, 18, 0)
s = 137: (0, 5, 36, 12, 14, 25, 4, 24, 11, 7, 34, 0)
s = 138: (0, 8, 37, 18, 11, 36, 5, 23, 10, 7, 31, 0)
s = 139: (0, 5, 22, 17, 7, 35, 3, 12, 10, 6, 40, 0)
s = 140: (0, 6, 16, 18, 7, 37, 7, 17, 6, 6, 15, 0)
s = 141: (0, 6, 22, 15, 7, 23, 4, 23, 7, 8, 34, 0)
s = 142: (0, 5, 22, 16, 6, 39, 5, 13, 10, 5, 33, 0)
s = 143: (0, 7, 20, 16, 10, 34, 5, 13, 8, 4, 32, 0)
s = 144: (0, 7, 35, 10, 10, 39, 7, 29, 6, 5, 31, 0)
s = 145: (0, 7, 29, 14, 13, 24, 4, 25, 11, 6, 26, 0)
s = 146: (0, 5, 26, 14, 6, 23, 3, 20, 8, 7, 22, 0)
s = 147: (0, 10, 24, 9, 8, 31, 6, 21, 6, 6, 23, 0)
s = 148: (0, 5, 33, 8, 10, 27, 5, 23, 7, 6, 25, 0)
s = 149: (0, 6, 20, 7, 7, 55, 4, 17, 9, 7, 15, 0)
s = 150: (0, 7, 22, 12, 9, 49, 3, 21, 9, 5, 13, 0)
s = 151: (0, 6, 32, 9, 5, 40, 6, 19, 12, 6, 14, 0)
s = 152: (0, 4, 17, 10, 5, 42, 4, 26, 6, 10, 32, 0)
s = 153: (0, 6, 22, 15, 6, 56, 4, 16, 8, 9, 30, 0)
s = 154: (0, 6, 26, 17, 8, 41, 3, 15, 7, 6, 37, 0)
s = 155: (0, 7, 22, 9, 6, 51, 4, 13, 10, 7, 22, 0)
s = 156: (0, 6, 28, 10, 14, 33, 4, 15, 10, 8, 28, 0)
s = 157: (0, 7, 25, 10, 9, 41, 5, 21, 7, 9, 23, 0)
s = 158: (0, 6, 24, 20, 8, 33, 9, 14, 7, 5, 23, 0)
s = 159: (0, 6, 15, 10, 8, 44, 6, 18, 12, 10, 22, 0)
s = 160: (0, 6, 24, 8, 9, 27, 5, 25, 9, 7, 13, 0)
s = 161: (0, 5, 22, 8, 12, 55, 3, 22, 11, 7, 22, 0)
s = 162: (0, 6, 26, 14, 12, 33, 5, 12, 12, 5, 26, 0)
s = 163: (0, 6, 23, 10, 8, 23, 5, 17, 11, 6, 29, 0)
s = 164: (0, 6, 18, 15, 9, 36, 4, 14, 8, 10, 38, 0)
s = 165: (0, 5, 25, 12, 7, 25, 6, 24, 9, 8, 17, 0)
s = 166: (0, 5, 21, 8, 5, 31, 7, 22, 11, 6, 43, 0)
s = 167: (0, 6, 17, 9, 9, 34, 4, 20, 10, 7, 31, 0)
s = 168: (0, 8, 18, 10, 5, 34, 6, 17, 7, 5, 21, 0)
s = 169: (0, 7, 29, 12, 11, 44, 4, 26, 8, 5, 39, 0)
s = 170: (0, 9, 20, 14, 6, 35, 7, 14, 11, 5, 19, 0)
s = 171: (0, 7, 37, 11, 8, 54, 5, 21, 8, 10, 22, 0)
s = 172: (0, 7, 31, 13, 8, 25, 4, 22, 6, 7, 17, 0)
s = 173: (0, 6, 20, 13, 9, 28, 3, 21, 8, 6, 28, 0)
s = 174: (0, 7, 26, 12, 10, 36, 4, 24, 7, 6, 44, 0)
s = 175: (0, 8, 16, 14, 9, 43, 4, 11, 10, 9, 21, 0)
s = 176: (0, 8, 22, 8, 7, 33, 4, 26, 12, 6, 28, 0)
s = 177: (0, 8, 16, 7, 6, 21, 4, 23, 8, 9, 20, 0)
s = 178: (0, 8, 25, 10, 5, 31, 4, 20, 10, 11, 37, 0)
s = 179: (0, 6, 34, 21, 6, 32, 5, 24, 10, 4, 24, 0)
s = 180: (0, 8, 27, 12, 10, 39, 6, 31, 10, 6, 20, 0)
s = 181: (0, 6, 28, 9, 6, 58, 4, 18, 12, 5, 23, 0)
s = 182: (0, 4, 14, 14, 6, 35, 5, 32, 13, 5, 25, 0)
s = 183: (0, 6, 25, 12, 12, 39, 4, 17, 11, 6, 31, 0)
s = 184: (0, 7, 26, 16, 10, 30, 6, 15, 13, 7, 16, 0)
s = 185: (0, 6, 32, 13, 8, 35, 4, 20, 10, 5, 44, 0)
s = 186: (0, 6, 27, 20, 13, 30, 5, 25, 10, 7, 21, 0)
s = 187: (0, 4, 28, 8, 8, 41, 7, 21, 8, 6, 27, 0)
s = 188: (0, 6, 22, 12, 7, 37, 5, 13, 14, 9, 40, 0)
s = 189: (0, 5, 23, 19, 11, 26, 5, 21, 9, 8, 23, 0)
s = 190: (0, 6, 27, 12, 9, 34, 4, 24, 8, 5, 17, 0)
s = 191: (0, 4, 21, 17, 6, 28, 5, 20, 9, 4, 18, 0)
s = 192: (0, 8, 17, 15, 7, 40, 6, 21, 16, 5, 33, 0)
s = 193: (0, 6, 20, 11, 7, 22, 3, 29, 7, 5, 41, 0)
s = 194: (0, 6, 29, 13, 13, 45, 4, 16, 7, 5, 22, 0)
s = 195: (0, 5, 20, 11, 6, 25, 5, 25, 10, 9, 16, 0)
s = 196: (0, 6, 27, 9, 7, 41, 5, 20, 8, 5, 23, 0)
s = 197: (0, 7, 34, 12, 13, 24, 6, 20, 7, 6, 14, 0)
s = 198: (0, 7, 20, 13, 6, 32, 5, 16, 13, 6, 31, 0)
s = 199: (0, 6, 15, 15, 12, 24, 3, 17, 14, 5, 22, 0)
s = 200: (0, 5, 19, 8, 15, 39, 4, 15, 12, 4, 27, 0)
------------------------------------------------------------------------
RESOURCE k = 2
s = 1: (0, 5, 27, 10, 10, 17, 18, 62, 6, 9, 37, 0)
s = 2: (0, 6, 22, 22, 14, 18, 16, 30, 4, 7, 37, 0)
s = 3: (0, 6, 32, 22, 13, 21, 15, 50, 4, 8, 32, 0)
s = 4: (0, 3, 17, 26, 14, 15, 16, 28, 5, 8, 30, 0)
s = 5: (0, 4, 22, 16, 13, 19, 16, 47, 8, 6, 37, 0)
s = 6: (0, 4, 21, 20, 12, 33, 11, 47, 4, 6, 29, 0)
s = 7: (0, 6, 29, 25, 9, 26, 18, 81, 7, 9, 48, 0)
s = 8: (0, 4, 19, 19, 15, 25, 13, 33, 8, 11, 41, 0)
s = 9: (0, 5, 37, 20, 14, 21, 15, 38, 4, 11, 29, 0)
s = 10: (0, 7, 29, 13, 15, 26, 11, 40, 4, 8, 26, 0)
s = 11: (0, 7, 41, 12, 16, 15, 26, 34, 4, 8, 46, 0)
s = 12: (0, 4, 32, 25, 14, 13, 17, 31, 4, 8, 26, 0)
s = 13: (0, 5, 27, 18, 9, 13, 12, 35, 6, 10, 42, 0)
s = 14: (0, 3, 19, 20, 15, 12, 15, 41, 7, 13, 25, 0)
s = 15: (0, 5, 22, 16, 16, 17, 10, 32, 6, 7, 32, 0)
s = 16: (0, 7, 27, 17, 14, 16, 15, 58, 4, 11, 39, 0)
s = 17: (0, 4, 16, 15, 17, 17, 20, 43, 6, 8, 48, 0)
s = 18: (0, 3, 33, 15, 12, 18, 14, 40, 6, 8, 17, 0)
s = 19: (0, 3, 18, 11, 17, 20, 12, 33, 7, 8, 40, 0)
s = 20: (0, 4, 33, 10, 10, 15, 13, 48, 9, 10, 27, 0)
s = 21: (0, 4, 18, 19, 10, 29, 20, 43, 5, 10, 32, 0)
s = 22: (0, 5, 22, 10, 11, 20, 17, 50, 5, 10, 37, 0)
s = 23: (0, 4, 22, 22, 12, 25, 21, 38, 3, 10, 18, 0)
s = 24: (0, 3, 25, 25, 13, 14, 16, 50, 6, 5, 44, 0)
s = 25: (0, 4, 20, 21, 9, 18, 15, 32, 6, 9, 42, 0)
s = 26: (0, 3, 32, 21, 18, 15, 10, 65, 4, 9, 32, 0)
s = 27: (0, 3, 19, 23, 18, 17, 19, 63, 5, 7, 20, 0)
s = 28: (0, 4, 20, 19, 15, 17, 13, 66, 5, 7, 31, 0)
s = 29: (0, 6, 18, 19, 16, 30, 13, 48, 8, 8, 36, 0)
s = 30: (0, 4, 16, 11, 11, 18, 17, 46, 6, 7, 42, 0)
s = 31: (0, 4, 16, 20, 21, 35, 10, 42, 7, 12, 25, 0)
s = 32: (0, 4, 35, 23, 10, 23, 20, 43, 4, 10, 48, 0)
s = 33: (0, 5, 23, 20, 11, 19, 16, 71, 6, 10, 41, 0)
s = 34: (0, 5, 32, 14, 8, 23, 26, 48, 5, 6, 24, 0)
s = 35: (0, 7, 22, 24, 15, 24, 13, 50, 5, 6, 39, 0)
s = 36: (0, 3, 16, 25, 11, 29, 8, 43, 7, 10, 23, 0)
s = 37: (0, 5, 30, 28, 14, 18, 15, 58, 4, 13, 25, 0)
s = 38: (0, 5, 37, 23, 12, 24, 25, 39, 3, 6, 21, 0)
s = 39: (0, 4, 22, 13, 12, 14, 15, 38, 6, 6, 24, 0)
s = 40: (0, 5, 25, 13, 10, 18, 21, 55, 7, 5, 34, 0)
s = 41: (0, 5, 19, 13, 17, 25, 8, 43, 6, 7, 37, 0)
s = 42: (0, 7, 20, 20, 11, 13, 25, 47, 6, 9, 43, 0)
s = 43: (0, 4, 39, 24, 20, 24, 11, 39, 4, 7, 40, 0)
s = 44: (0, 4, 25, 27, 15, 21, 16, 30, 5, 6, 32, 0)
s = 45: (0, 3, 31, 15, 17, 20, 19, 59, 5, 7, 25, 0)
s = 46: (0, 4, 31, 18, 13, 20, 10, 61, 4, 8, 19, 0)
s = 47: (0, 4, 28, 19, 9, 21, 15, 57, 5, 7, 31, 0)
s = 48: (0, 5, 33, 12, 10, 27, 22, 37, 5, 9, 37, 0)
s = 49: (0, 6, 24, 15, 10, 16, 9, 63, 3, 8, 17, 0)
s = 50: (0, 4, 17, 16, 9, 15, 17, 38, 5, 10, 27, 0)
s = 51: (0, 5, 34, 15, 16, 11, 12, 45, 5, 7, 22, 0)
s = 52: (0, 5, 22, 22, 9, 29, 13, 43, 7, 8, 26, 0)
s = 53: (0, 5, 30, 19, 19, 27, 12, 29, 5, 8, 38, 0)
s = 54: (0, 5, 18, 13, 8, 30, 17, 42, 4, 7, 41, 0)
s = 55: (0, 6, 16, 18, 20, 15, 18, 67, 6, 5, 20, 0)
s = 56: (0, 4, 22, 15, 9, 22, 12, 65, 6, 6, 23, 0)
s = 57: (0, 6, 28, 15, 13, 18, 23, 43, 6, 10, 32, 0)
s = 58: (0, 4, 18, 20, 9, 21, 12, 48, 6, 10, 21, 0)
s = 59: (0, 6, 26, 19, 8, 26, 14, 36, 8, 10, 36, 0)
s = 60: (0, 3, 33, 21, 9, 16, 12, 31, 4, 8, 32, 0)
s = 61: (0, 3, 22, 13, 11, 13, 14, 71, 8, 10, 49, 0)
s = 62: (0, 3, 23, 17, 8, 22, 9, 37, 7, 8, 36, 0)
s = 63: (0, 5, 20, 10, 10, 23, 12, 39, 7, 5, 44, 0)
s = 64: (0, 4, 21, 15, 10, 17, 14, 37, 3, 5, 35, 0)
s = 65: (0, 3, 38, 14, 10, 23, 12, 41, 6, 8, 27, 0)
s = 66: (0, 5, 21, 14, 13, 16, 13, 81, 3, 5, 36, 0)
s = 67: (0, 4, 16, 13, 8, 35, 20, 41, 3, 8, 19, 0)
s = 68: (0, 4, 25, 23, 9, 23, 14, 68, 7, 8, 28, 0)
s = 69: (0, 3, 19, 18, 13, 14, 16, 44, 8, 9, 31, 0)
s = 70: (0, 4, 19, 20, 7, 24, 12, 36, 4, 8, 23, 0)
s = 71: (0, 5, 18, 17, 12, 30, 19, 32, 4, 11, 31, 0)
s = 72: (0, 5, 25, 15, 19, 17, 18, 50, 4, 8, 21, 0)
s = 73: (0, 5, 38, 29, 14, 22, 19, 57, 4, 9, 19, 0)
s = 74: (0, 4, 23, 13, 8, 14, 21, 64, 4, 6, 31, 0)
s = 75: (0, 7, 34, 13, 10, 17, 13, 36, 7, 10, 34, 0)
s = 76: (0, 5, 18, 22, 10, 16, 11, 43, 8, 6, 22, 0)
s = 77: (0, 3, 19, 12, 15, 29, 15, 34, 6, 9, 42, 0)
s = 78: (0, 7, 22, 16, 15, 18, 13, 60, 4, 13, 40, 0)
s = 79: (0, 5, 19, 14, 14, 24, 14, 34, 5, 5, 37, 0)
s = 80: (0, 6, 21, 21, 10, 20, 10, 35, 5, 8, 37, 0)
s = 81: (0, 8, 24, 25, 20, 23, 19, 29, 6, 6, 25, 0)
s = 82: (0, 6, 17, 19, 13, 13, 9, 42, 4, 6, 21, 0)
s = 83: (0, 3, 26, 17, 14, 18, 16, 68, 5, 10, 27, 0)
s = 84: (0, 3, 28, 16, 15, 21, 10, 26, 4, 10, 18, 0)
s = 85: (0, 6, 30, 14, 18, 19, 16, 56, 4, 13, 39, 0)
s = 86: (0, 3, 25, 25, 20, 26, 11, 33, 5, 7, 22, 0)
s = 87: (0, 5, 22, 27, 12, 28, 21, 42, 6, 7, 28, 0)
s = 88: (0, 4, 28, 17, 9, 28, 17, 43, 5, 11, 27, 0)
s = 89: (0, 3, 34, 14, 15, 11, 13, 41, 7, 13, 24, 0)
s = 90: (0, 5, 26, 20, 15, 35, 10, 55, 5, 10, 48, 0)
s = 91: (0, 4, 31, 14, 18, 13, 11, 39, 6, 7, 25, 0)
s = 92: (0, 6, 40, 15, 14, 17, 9, 33, 5, 9, 48, 0)
s = 93: (0, 5, 22, 15, 16, 14, 12, 36, 4, 6, 30, 0)
s = 94: (0, 6, 25, 19, 14, 24, 14, 40, 4, 10, 31, 0)
s = 95: (0, 4, 31, 17, 11, 13, 15, 29, 4, 10, 19, 0)
s = 96: (0, 5, 20, 27, 9, 22, 20, 24, 7, 13, 23, 0)
s = 97: (0, 4, 28, 21, 16, 16, 21, 69, 7, 7, 22, 0)
s = 98: (0, 5, 28, 18, 10, 21, 13, 54, 4, 8, 36, 0)
s = 99: (0, 5, 16, 21, 13, 16, 17, 43, 5, 10, 52, 0)
s = 100: (0, 3, 15, 14, 10, 13, 14, 36, 6, 7, 32, 0)
s = 101: (0, 4, 39, 18, 13, 13, 9, 39, 5, 5, 26, 0)
s = 102: (0, 5, 38, 23, 12, 25, 15, 47, 6, 11, 32, 0)
s = 103: (0, 5, 31, 19, 7, 20, 11, 46, 7, 7, 27, 0)
s = 104: (0, 3, 42, 15, 11, 23, 8, 35, 4, 7, 19, 0)
s = 105: (0, 5, 31, 18, 12, 13, 11, 34, 5, 5, 38, 0)
s = 106: (0, 5, 15, 17, 17, 15, 10, 30, 6, 8, 18, 0)
s = 107: (0, 4, 18, 19, 9, 14, 23, 45, 6, 13, 28, 0)
s = 108: (0, 5, 27, 17, 13, 19, 11, 44, 6, 8, 36, 0)
s = 109: (0, 4, 27, 21, 19, 16, 9, 58, 5, 9, 38, 0)
s = 110: (0, 5, 16, 15, 19, 23, 13, 39, 7, 8, 36, 0)
s = 111: (0, 4, 15, 19, 11, 27, 10, 48, 8, 5, 21, 0)
s = 112: (0, 5, 18, 19, 9, 13, 8, 44, 7, 6, 49, 0)
s = 113: (0, 3, 17, 17, 14, 20, 13, 28, 8, 10, 48, 0)
s = 114: (0, 4, 23, 11, 10, 16, 13, 35, 5, 7, 31, 0)
s = 115: (0, 4, 18, 29, 9, 17, 12, 31, 8, 7, 40, 0)
s = 116: (0, 3, 29, 16, 23, 27, 11, 24, 5, 6, 19, 0)
s = 117: (0, 3, 23, 24, 14, 17, 15, 40, 5, 7, 23, 0)
s = 118: (0, 6, 14, 14, 16, 16, 15, 37, 5, 8, 27, 0)
s = 119: (0, 5, 35, 17, 10, 18, 17, 38, 4, 9, 21, 0)
s = 120: (0, 4, 23, 15, 9, 14, 13, 52, 7, 11, 37, 0)
s = 121: (0, 6, 22, 29, 18, 19, 17, 66, 4, 8, 26, 0)
s = 122: (0, 7, 19, 17, 8, 21, 15, 27, 6, 7, 22, 0)
s = 123: (0, 3, 29, 19, 19, 19, 13, 38, 4, 9, 36, 0)
s = 124: (0, 7, 42, 13, 12, 12, 12, 57, 10, 10, 19, 0)
s = 125: (0, 3, 32, 15, 15, 27, 15, 42, 5, 11, 28, 0)
s = 126: (0, 3, 32, 15, 11, 16, 15, 40, 6, 10, 29, 0)
s = 127: (0, 3, 20, 18, 20, 16, 19, 49, 4, 12, 48, 0)
s = 128: (0, 4, 26, 14, 10, 19, 15, 38, 8, 6, 25, 0)
s = 129: (0, 5, 27, 33, 17, 30, 14, 79, 4, 7, 37, 0)
s = 130: (0, 3, 24, 18, 8, 19, 14, 28, 5, 12, 26, 0)
s = 131: (0, 5, 25, 24, 19, 25, 18, 50, 5, 9, 27, 0)
s = 132: (0, 4, 22, 20, 9, 28, 15, 50, 4, 8, 43, 0)
s = 133: (0, 5, 29, 19, 14, 15, 13, 42, 5, 11, 23, 0)
s = 134: (0, 6, 17, 13, 15, 16, 11, 37, 4, 11, 40, 0)
s = 135: (0, 3, 18, 15, 11, 18, 22, 41, 9, 10, 47, 0)
s = 136: (0, 5, 16, 13, 12, 19, 17, 68, 4, 5, 24, 0)
s = 137: (0, 3, 36, 18, 20, 14, 11, 54, 7, 9, 46, 0)
s = 138: (0, 6, 37, 27, 16, 20, 16, 51, 6, 9, 41, 0)
s = 139: (0, 3, 22, 25, 10, 20, 10, 26, 6, 8, 53, 0)
s = 140: (0, 4, 16, 27, 10, 21, 24, 38, 4, 8, 19, 0)
s = 141: (0, 4, 22, 22, 10, 13, 11, 51, 4, 10, 45, 0)
s = 142: (0, 3, 22, 23, 9, 22, 16, 29, 6, 6, 44, 0)
s = 143: (0, 5, 20, 23, 15, 19, 17, 29, 5, 5, 42, 0)
s = 144: (0, 5, 35, 15, 14, 22, 24, 64, 3, 7, 41, 0)
s = 145: (0, 5, 29, 21, 19, 14, 13, 55, 6, 8, 35, 0)
s = 146: (0, 3, 26, 21, 8, 13, 11, 44, 5, 9, 29, 0)
s = 147: (0, 7, 24, 13, 12, 17, 21, 47, 4, 7, 30, 0)
s = 148: (0, 4, 33, 12, 15, 15, 18, 50, 4, 7, 33, 0)
s = 149: (0, 4, 20, 11, 10, 31, 13, 39, 5, 10, 20, 0)
s = 150: (0, 5, 22, 18, 13, 27, 9, 47, 5, 6, 17, 0)
s = 151: (0, 4, 32, 13, 8, 23, 19, 42, 7, 8, 18, 0)
s = 152: (0, 3, 17, 14, 7, 23, 12, 58, 3, 13, 42, 0)
s = 153: (0, 4, 22, 23, 9, 31, 12, 35, 5, 12, 40, 0)
s = 154: (0, 4, 26, 25, 12, 23, 11, 33, 4, 8, 49, 0)
s = 155: (0, 5, 22, 13, 9, 29, 14, 28, 6, 9, 30, 0)
s = 156: (0, 4, 28, 15, 20, 19, 13, 33, 6, 10, 38, 0)
s = 157: (0, 5, 25, 14, 14, 23, 16, 46, 4, 12, 31, 0)
s = 158: (0, 4, 24, 29, 12, 19, 29, 31, 4, 6, 31, 0)
s = 159: (0, 4, 15, 15, 12, 24, 20, 40, 7, 13, 30, 0)
s = 160: (0, 4, 24, 12, 13, 15, 16, 55, 5, 9, 17, 0)
s = 161: (0, 4, 22, 12, 18, 31, 10, 48, 6, 9, 29, 0)
s = 162: (0, 4, 26, 21, 17, 19, 15, 25, 7, 7, 35, 0)
s = 163: (0, 4, 23, 15, 12, 13, 17, 37, 6, 8, 38, 0)
s = 164: (0, 4, 18, 22, 13, 20, 11, 31, 5, 14, 51, 0)
s = 165: (0, 3, 25, 18, 11, 14, 18, 54, 5, 10, 23, 0)
s = 166: (0, 4, 21, 11, 7, 17, 22, 49, 6, 7, 58, 0)
s = 167: (0, 4, 17, 13, 13, 19, 12, 45, 6, 9, 41, 0)
s = 168: (0, 5, 18, 15, 8, 19, 19, 37, 4, 7, 28, 0)
s = 169: (0, 5, 29, 17, 16, 25, 14, 58, 4, 6, 52, 0)
s = 170: (0, 6, 20, 20, 8, 20, 23, 31, 6, 6, 26, 0)
s = 171: (0, 5, 37, 16, 11, 30, 15, 46, 5, 13, 29, 0)
s = 172: (0, 5, 31, 19, 12, 14, 12, 50, 4, 9, 22, 0)
s = 173: (0, 4, 20, 20, 13, 16, 10, 47, 5, 8, 37, 0)
s = 174: (0, 5, 26, 17, 15, 20, 13, 54, 4, 8, 59, 0)
s = 175: (0, 5, 16, 21, 13, 24, 12, 24, 6, 12, 27, 0)
s = 176: (0, 5, 22, 12, 10, 18, 12, 57, 7, 8, 38, 0)
s = 177: (0, 5, 16, 11, 9, 12, 13, 50, 5, 12, 27, 0)
s = 178: (0, 6, 25, 14, 7, 17, 12, 44, 6, 14, 50, 0)
s = 179: (0, 4, 34, 31, 9, 18, 16, 54, 6, 5, 32, 0)
s = 180: (0, 6, 27, 18, 14, 22, 19, 70, 6, 8, 26, 0)
s = 181: (0, 4, 28, 13, 9, 32, 13, 40, 7, 7, 31, 0)
s = 182: (0, 3, 14, 21, 9, 20, 16, 71, 7, 6, 33, 0)
s = 183: (0, 4, 25, 18, 18, 22, 13, 37, 6, 8, 41, 0)
s = 184: (0, 5, 26, 24, 15, 17, 19, 33, 7, 9, 21, 0)
s = 185: (0, 4, 32, 20, 12, 20, 12, 45, 6, 7, 58, 0)
s = 186: (0, 4, 27, 29, 20, 17, 15, 56, 6, 9, 28, 0)
s = 187: (0, 3, 28, 11, 12, 23, 24, 46, 4, 7, 36, 0)
s = 188: (0, 4, 22, 18, 11, 21, 16, 28, 8, 12, 53, 0)
s = 189: (0, 4, 23, 28, 17, 15, 15, 47, 5, 11, 30, 0)
s = 190: (0, 4, 27, 18, 14, 19, 12, 54, 5, 7, 23, 0)
s = 191: (0, 3, 21, 25, 9, 16, 17, 45, 5, 6, 24, 0)
s = 192: (0, 5, 17, 22, 11, 22, 18, 48, 9, 7, 43, 0)
s = 193: (0, 4, 20, 16, 11, 13, 10, 65, 4, 6, 54, 0)
s = 194: (0, 4, 29, 19, 19, 25, 12, 36, 4, 6, 29, 0)
s = 195: (0, 4, 20, 16, 8, 14, 17, 57, 6, 12, 21, 0)
s = 196: (0, 4, 27, 13, 10, 23, 17, 44, 4, 7, 31, 0)
s = 197: (0, 5, 34, 17, 20, 14, 19, 45, 4, 8, 18, 0)
s = 198: (0, 5, 20, 19, 9, 18, 16, 36, 8, 8, 42, 0)
s = 199: (0, 4, 15, 23, 18, 14, 10, 37, 8, 7, 29, 0)
s = 200: (0, 4, 19, 11, 22, 22, 14, 32, 7, 5, 36, 0)
************************************************************************
ES/LS-VALUES:
jobnr.   ES(i)    LS(i)
------------------------------------------------------------------------
  0        0        0
  1        0       69
  2        0       45
  3        0       52
  4        5       54
  5        5       51
  6        5       62
  7       12       58
  8        9       73
  9        8       73
 10       21       67
 11       28       75
************************************************************************
BIG-M-VALUES:
M1 = 35, M2 = 132
************************************************************************
